12 40 3 10
1 16 5 13 1 1 9 16 7 17 9 4 18 1 13 18 8 1 8 18 8 10 13 3 15 2 10 20 2 7 9 5 6 2 5 13 18 9 11 17 
5.69 6.86 7.2 6.27 1.27 4.48 2.59 3.17 4.34 2.44 1.86 5.81 4.1 0.93 1.51 5.21 4.5 4.19 6.25 0.44 7.02 6.87 3.52 1.56 2.66 3.42 7.15 1.76 4.59 7.53 3.85 7.27 7.6 0.34 1.72 0.61 7.54 2.07 6.23 5.24 
1 7.25 1.16 2.38 7.53 3.71 0.35 2.5 3.96 0.17 4.86 1.49 1.5 3.9 7.98 0.34 1.39 2.47 1.98 3.76 3.04 5.17 6.67 4.5 2.37 4.21 2.18 2.34 5.42 3.56 5.15 0.06 6.44 3.53 7.36 4.23 1.29 6.22 0.67 3.04 
2.25 7.51 6.99 1.47 3.29 2.97 2.9 0.58 2.96 2.88 3.67 7.88 6.01 5.57 6.32 2.83 5.99 4.05 5.67 7.79 6.23 5.27 1.23 6.27 2.66 4.47 4.57 0.11 3.48 0.7 2.03 6.95 6.01 2.77 3.6 6.21 1.58 3.52 7.1 7.71 
4 4 4 4 4 4 4 4 4 4 4 4 4 4 4 4 4 4 4 4 4 4 4 4 4 4 4 4 4 4 4 4 4 4 4 4 4 4 4 4 
7.98 0.43 0.71 0.72 3.64 4.84 5.72 3.78 5.27 2.55 4.68 3.82 1.19 2.27 5.28 4.86 1.96 7.36 1.56 5.37 7.21 4.07 7.88 5.77 6.42 4.56 4.98 3.04 6.11 5.05 1.63 3.93 5.42 3.61 5.82 3.53 0.47 2.37 4.81 7.1 
2.65 0.66 2.68 4 2.4 1.43 3.65 1.14 0.76 1.42 5.26 1.91 7.23 5.4 5.53 2.53 4.23 6.04 4 6.92 6.88 3.96 2.13 7.43 6.04 1.4 7.37 4.22 6.08 3.21 3.43 1.36 0.23 7.9 2.61 6 7.4 6.11 2.26 3.89 
0.84 3.53 5.82 4.89 5.12 1.31 5.25 1.93 7.63 7.8 7.49 0.81 6.1 7.19 0.32 4.54 5.03 0.39 6.07 3.53 7.45 4.67 5.83 5.36 7.54 6.4 2.69 7.12 4.57 1.82 6.41 1.97 2.69 7.42 2.56 6.97 6.6 7.19 3.6 6.85 
0.49 2.66 5.46 2.31 0.78 6.95 6.06 2.74 6.17 1.34 0.26 0.32 2.53 2.49 3.21 2.49 2.56 5.72 4.64 5.44 2.67 2.19 5.05 2.6 3.4 3.77 7.43 7.09 5.77 1.38 5.27 7.32 1.79 2.68 6.1 5.57 0.91 2.62 6.12 6.81 
2.27 4.07 1.37 3.11 4.44 5.55 3.49 4.64 3.08 0.18 6.78 2.69 1.32 0.72 7.83 7.05 3.84 2.46 4.67 4.83 5.84 0.35 1.56 6.38 6.54 0.77 1.29 2.09 7 3.72 0.86 6.36 0.19 5.61 4.96 6.33 2.29 7.65 3.72 2.3 
5.12 0.09 3.69 3.55 7.39 1.83 1.34 1.84 3.64 1.56 3.31 5.06 3.32 1.36 3.8 1.96 7.74 7.51 4.59 2.02 2.96 7.92 0.59 4.95 5.44 7.41 7.1 7.7 0.16 0.86 0.46 5.52 0.3 1.42 5.27 0.11 2.3 7.3 4.93 3.36 
5.73 7.67 2.83 5.71 7.96 1.51 3.8 4.61 5.71 7.49 4.04 6.03 0.82 3.68 1.75 2.84 7.26 3.31 4.01 5.41 0.9 7.68 3.06 4.24 5.88 3.53 0.73 3.62 4.15 3.7 0.17 1.7 2.16 2.1 7.91 0.71 6.08 4.17 1.45 4.5 
7.38 7.53 5.22 7.49 4.74 4.95 4.25 6.31 6.87 6.12 7.39 6.13 2.88 1.06 6.26 3.18 4.21 5.51 4.41 7.29 1.67 1.24 0.08 0.42 5.06 5.12 5.88 7.36 7.24 1.78 7.25 5.3 5.47 7.23 2.72 0.04 5.62 4.82 3.43 5.24 
1 1 1 1 1 1 1 1 1 1 1 1 1 1 1 1 1 1 1 1 1 1 1 1 1 1 1 1 1 1 1 1 1 1 1 1 1 1 1 1 
1 1 1 1 1 1 1 1 1 1 1 1 1 1 1 1 1 1 1 1 1 1 1 1 1 1 1 1 1 1 1 1 1 1 1 1 1 1 1 1 
1 1 1 1 1 1 1 1 1 1 1 1 1 1 1 1 1 1 1 1 1 1 1 1 1 1 1 1 1 1 1 1 1 1 1 1 1 1 1 1 
1 1 1 1 1 1 1 1 1 1 1 1 1 1 1 1 1 1 1 1 1 1 1 1 1 1 1 1 1 1 1 1 1 1 1 1 1 1 1 1 
1 1 1 1 1 1 1 1 1 1 1 1 1 1 1 1 1 1 1 1 1 1 1 1 1 1 1 1 1 1 1 1 1 1 1 1 1 1 1 1 
1 1 1 1 1 1 1 1 1 1 1 1 1 1 1 1 1 1 1 1 1 1 1 1 1 1 1 1 1 1 1 1 1 1 1 1 1 1 1 1 
1 1 1 1 1 1 1 1 1 1 1 1 1 1 1 1 1 1 1 1 1 1 1 1 1 1 1 1 1 1 1 1 1 1 1 1 1 1 1 1 
1 1 1 1 1 1 1 1 1 1 1 1 1 1 1 1 1 1 1 1 1 1 1 1 1 1 1 1 1 1 1 1 1 1 1 1 1 1 1 1 
1 1 1 1 1 1 1 1 1 1 1 1 1 1 1 1 1 1 1 1 1 1 1 1 1 1 1 1 1 1 1 1 1 1 1 1 1 1 1 1 
1 1 1 1 1 1 1 1 1 1 1 1 1 1 1 1 1 1 1 1 1 1 1 1 1 1 1 1 1 1 1 1 1 1 1 1 1 1 1 1 
1 1 1 1 1 1 1 1 1 1 1 1 1 1 1 1 1 1 1 1 1 1 1 1 1 1 1 1 1 1 1 1 1 1 1 1 1 1 1 1 
1 1 1 1 1 1 1 1 1 1 1 1 1 1 1 1 1 1 1 1 1 1 1 1 1 1 1 1 1 1 1 1 1 1 1 1 1 1 1 1 
0.01 0.01 0.01 0.01 0.01 0.01 0.01 0.01 0.01 0.01 0.01 0.01 0.01 0.01 0.01 0.01 0.01 0.01 0.01 0.01 0.01 0.01 0.01 0.01 0.01 0.01 0.01 0.01 0.01 0.01 0.01 0.01 0.01 0.01 0.01 0.01 0.01 0.01 0.01 0.01 
0.02 0.02 0.02 0.02 0.02 0.02 0.02 0.02 0.02 0.02 0.02 0.02 0.02 0.02 0.02 0.02 0.02 0.02 0.02 0.02 0.02 0.02 0.02 0.02 0.02 0.02 0.02 0.02 0.02 0.02 0.02 0.02 0.02 0.02 0.02 0.02 0.02 0.02 0.02 0.02 
0.03 0.03 0.03 0.03 0.03 0.03 0.03 0.03 0.03 0.03 0.03 0.03 0.03 0.03 0.03 0.03 0.03 0.03 0.03 0.03 0.03 0.03 0.03 0.03 0.03 0.03 0.03 0.03 0.03 0.03 0.03 0.03 0.03 0.03 0.03 0.03 0.03 0.03 0.03 0.03 
0.04 0.04 0.04 0.04 0.04 0.04 0.04 0.04 0.04 0.04 0.04 0.04 0.04 0.04 0.04 0.04 0.04 0.04 0.04 0.04 0.04 0.04 0.04 0.04 0.04 0.04 0.04 0.04 0.04 0.04 0.04 0.04 0.04 0.04 0.04 0.04 0.04 0.04 0.04 0.04 
0.125 0.125 0.125 0.125 0.125 0.125 0.125 0.125 0.125 0.125 0.125 0.125 0.125 0.125 0.125 0.125 0.125 0.125 0.125 0.125 0.125 0.125 0.125 0.125 0.125 0.125 0.125 0.125 0.125 0.125 0.125 0.125 0.125 0.125 0.125 0.125 0.125 0.125 0.125 0.125 
0.25 0.25 0.25 0.25 0.25 0.25 0.25 0.25 0.25 0.25 0.25 0.25 0.25 0.25 0.25 0.25 0.25 0.25 0.25 0.25 0.25 0.25 0.25 0.25 0.25 0.25 0.25 0.25 0.25 0.25 0.25 0.25 0.25 0.25 0.25 0.25 0.25 0.25 0.25 0.25 
0.375 0.375 0.375 0.375 0.375 0.375 0.375 0.375 0.375 0.375 0.375 0.375 0.375 0.375 0.375 0.375 0.375 0.375 0.375 0.375 0.375 0.375 0.375 0.375 0.375 0.375 0.375 0.375 0.375 0.375 0.375 0.375 0.375 0.375 0.375 0.375 0.375 0.375 0.375 0.375 
0.5 0.5 0.5 0.5 0.5 0.5 0.5 0.5 0.5 0.5 0.5 0.5 0.5 0.5 0.5 0.5 0.5 0.5 0.5 0.5 0.5 0.5 0.5 0.5 0.5 0.5 0.5 0.5 0.5 0.5 0.5 0.5 0.5 0.5 0.5 0.5 0.5 0.5 0.5 0.5 
0.625 0.625 0.625 0.625 0.625 0.625 0.625 0.625 0.625 0.625 0.625 0.625 0.625 0.625 0.625 0.625 0.625 0.625 0.625 0.625 0.625 0.625 0.625 0.625 0.625 0.625 0.625 0.625 0.625 0.625 0.625 0.625 0.625 0.625 0.625 0.625 0.625 0.625 0.625 0.625 
0.75 0.75 0.75 0.75 0.75 0.75 0.75 0.75 0.75 0.75 0.75 0.75 0.75 0.75 0.75 0.75 0.75 0.75 0.75 0.75 0.75 0.75 0.75 0.75 0.75 0.75 0.75 0.75 0.75 0.75 0.75 0.75 0.75 0.75 0.75 0.75 0.75 0.75 0.75 0.75 
0.875 0.875 0.875 0.875 0.875 0.875 0.875 0.875 0.875 0.875 0.875 0.875 0.875 0.875 0.875 0.875 0.875 0.875 0.875 0.875 0.875 0.875 0.875 0.875 0.875 0.875 0.875 0.875 0.875 0.875 0.875 0.875 0.875 0.875 0.875 0.875 0.875 0.875 0.875 0.875 
1 1 1 1 1 1 1 1 1 1 1 1 1 1 1 1 1 1 1 1 1 1 1 1 1 1 1 1 1 1 1 1 1 1 1 1 1 1 1 1 
